w = 30;
n = 20;
measures = [|11, 30,
|3, 25,
|3, 19,
|3, 16,
|3, 14,
|3, 13,
|4, 9,
|3, 11,
|4, 8,
|3, 10,
|3, 9,
|3, 8,
|4, 6,
|3, 7,
|3, 6,
|4, 4,
|3, 5,
|3, 4,
|4, 3,
|3, 3,
|];
initial_x = [0, 11, 14, 17, 20, 23, 26, 0, 3, 7, 10, 13, 16, 20, 23, 26, 0, 3, 6, 10];
initial_y = [0, 0, 0, 0, 0, 0, 0, 30, 30, 30, 30, 30, 30, 30, 30, 30, 41, 41, 41, 41];